outputs/case_313.model.txt
improvement_completed = True
other_required_matters_established = False
audit_procedures_established = False
control_procedures_established = False
dedicated_personnel_assigned = False
bank_internal_control_executed = False
training_held = False
risk_assessment_report_updated = False
improvement_ordered = True
internal_operation_established = False
internal_operation_implemented = False
internal_handling_established = False
internal_handling_implemented = False
bank_internal_operation_ok = False
internal_control_implemented = False
aml_penalty_due_to_obstruction = False
bank_internal_operation_established = False
bank_internal_handling_executed = False
aml_penalty_due_to_violation = False
bank_internal_operation_executed = False
bank_internal_control_ok = False
internal_control_executed = False
aml_penalty_after_improvement = False
bank_internal_control_established = False
penalty = False
aml_violation = True
aml_internal_control_compliance = False
internal_control_established = False
bank_internal_handling_established = False
bank_internal_handling_ok = False
inspection_obstruction = False